20 90
0 1 19.5
0 2 63.9
0 3 86.8
0 4 6.4
0 5 28.2
0 6 22.6
0 7 71.5
0 8 52.6
0 9 70.5
0 10 13.4
0 11 100.1
0 12 71.2
0 13 66.8
0 14 83.2
0 15 31.7
0 16 23.6
0 17 64.6
0 18 44.2
0 19 57.8
1 2 76.9
1 3 103.2
1 4 14.9
1 5 13.2
1 6 41.9
1 7 85.0
1 8 66.0
1 9 88.1
1 10 32.2
1 11 116.0
1 12 90.5
1 13 84.8
1 14 99.6
1 15 48.9
1 16 31.7
1 17 71.2
1 18 42.8
1 19 77.3
2 3 33.4
2 4 70.1
2 5 89.4
2 6 49.5
2 7 8.3
2 8 11.3
2 9 89.2
2 10 52.7
2 11 42.4
2 12 51.3
2 13 84.4
2 14 30.5
2 15 35.7
2 16 83.4
2 17 26.2
2 18 50.8
2 19 52.1
3 4 93.2
3 5 114.5
3 6 66.6
3 7 26.6
3 8 40.2
3 9 84.6
3 10 73.6
3 11 14.2
3 12 37.8
3 13 80.5
3 14 3.6
3 15 55.1
3 16 101.1
3 17 58.4
3 18 83.7
3 19 48.2
4 5 21.9
4 6 28.6
4 7 77.7
4 8 58.8
4 9 73.4
4 10 19.8
4 11 106.6
4 12 77.1
4 13 70.0
4 14 89.6
4 15 38.1
4 16 20.8
4 17 69.6
4 18 46.8
4 19 63.3
5 6 50.5
5 7 97.4
5 8 78.4
5 9 90.3
5 10 41.6
5 11 127.6
5 12 98.8
5 13 87.5
5 14 110.9
5 15 59.6
5 16 29.9
5 17 84.4
5 18 55.5
5 19 84.8
6 7 55.8
6 8 38.7
6 9 55.4
6 10 10.0
6 11 80.5
6 12 48.6
6 13 51.0
6 14 63.1
6 15 13.9
6 16 34.9
6 17 59.0
6 18 51.2
6 19 35.5
7 8 19.0
7 9 91.3
7 10 59.8
7 11 34.4
7 12 50.3
7 13 86.6
7 14 24.1
7 15 42.1
7 16 90.2
7 17 31.8
7 18 58.8
7 19 53.5
8 9 82.1
8 10 41.4
8 11 51.2
8 12 49.0
8 13 77.3
8 14 36.8
8 15 24.8
8 16 72.2
8 17 27.3
8 18 43.9
8 19 46.6
9 10 63.3
9 11 97.5
9 12 47.1
9 13 4.8
9 14 82.5
9 15 63.1
9 16 61.0
9 17 108.3
9 18 106.5
9 19 38.0
10 11 87.2
10 12 58.3
10 13 59.2
10 14 70.0
10 15 18.6
10 16 30.9
10 17 57.6
10 18 44.4
10 19 45.5
11 12 50.4
11 13 93.5
11 14 17.5
11 15 68.6
11 16 115.1
11 17 64.8
11 18 93.2
11 19 61.9
12 13 43.2
12 14 36.0
12 15 44.5
12 16 77.3
12 17 75.9
12 18 88.0
12 19 15.1
13 14 78.3
13 15 58.4
13 16 58.6
13 17 103.5
13 18 102.1
13 19 33.4
14 15 51.5
14 16 97.6
14 17 55.9
14 18 80.5
14 19 45.6
15 16 48.2
15 17 46.7
15 18 45.6
15 19 34.7
16 17 87.5
16 18 67.4
16 19 62.3
17 18 33.5
17 19 73.8
18 19 80.1
